InboundTrucks  = 20;
OutboundTrucks = 20;
InboundDoors   = 4;
OutboundDoors  = 4;
ReleaseTime    = [17,72,108,102,97,8,32,15,63,97,57,60,83,48,100,26,12,62,3,114];
UnloadTime     = [35,11,34,34,16,12,27,22,35,15,23,33,21,28,30,34,22,34,28,16];
LoadTime       = [6,5,20,11,9,5,8,18,9,8,13,18,7,17,7,14,16,10,17,6];
TransferTime   = [| 3,0,0,2,0,0,1,0,0,4,0,0,2,0,0,0,0,0,4,0 | 0,3,0,0,5,0,0,5,0,0,0,0,0,4,0,0,5,8,0,5 | 0,0,5,0,0,3,0,0,2,0,0,2,0,0,1,0,0,3,0,0 | 0,6,0,1,0,0,3,0,0,0,0,0,3,0,0,3,12,6,0,0 | 0,2,0,0,1,0,0,5,0,0,0,6,0,0,0,0,0,0,0,3 | 0,0,5,0,11,2,0,0,1,0,0,1,9,0,2,0,0,1,0,9 | 4,0,0,4,0,0,4,0,0,4,0,0,2,0,0,0,0,0,1,0 | 0,3,0,0,0,0,0,5,0,0,5,0,0,3,0,0,3,0,0,1 | 0,0,0,5,0,2,0,0,5,0,0,3,0,0,0,0,0,5,0,0 | 0,0,0,4,0,0,2,0,0,0,0,0,4,0,0,0,0,0,1,0 | 0,2,0,0,0,11,0,0,0,0,4,0,0,3,0,0,0,0,0,2 | 12,0,4,0,0,3,0,0,0,0,0,0,0,0,0,0,0,4,0,9 | 1,0,12,4,0,0,0,0,0,3,0,0,5,0,7,3,0,0,0,0 | 0,4,0,0,2,0,0,1,0,0,5,0,0,5,0,0,5,0,0,3 | 0,0,1,0,0,2,6,0,4,0,0,2,0,0,4,0,0,4,8,0 | 0,0,0,0,0,0,4,0,0,0,0,0,4,0,0,1,0,0,1,0 | 0,0,0,0,4,0,0,5,0,0,3,0,0,5,0,0,0,0,0,3 | 0,0,3,0,0,5,0,0,0,0,0,0,0,0,3,0,0,1,0,0 | 3,0,0,1,0,8,1,0,0,0,0,0,5,0,0,2,0,0,0,0 | 0,0,0,0,3,0,0,0,0,0,2,0,0,5,0,0,1,0,0,5 |];
